40
1 0 15
2 0 10
2 1 7
3 0 6
3 1 1
3 2 6
4 0 3
4 1 17
4 2 15
4 3 16
5 0 11
5 1 1
5 2 17
5 3 15
5 4 14
6 0 6
6 1 16
6 2 14
6 3 11
6 4 14
6 5 12
7 0 15
7 1 13
7 2 11
7 3 12
7 4 18
7 5 1
7 6 6
8 0 3
8 1 3
8 2 5
8 3 15
8 4 9
8 5 1
8 6 6
8 7 16
9 0 6
9 1 7
9 2 10
9 3 11
9 4 10
9 5 15
9 6 8
9 7 14
9 8 7
10 0 11
10 1 1
10 2 16
10 3 9
10 4 15
10 5 4
10 6 16
10 7 10
10 8 18
10 9 9
11 0 11
11 1 20
11 2 14
11 3 2
11 4 18
11 5 1
11 6 9
11 7 1
11 8 4
11 9 16
11 10 7
12 0 8
12 1 20
12 2 15
12 3 13
12 4 12
12 5 2
12 6 6
12 7 17
12 8 10
12 9 7
12 10 12
12 11 15
13 0 19
13 1 6
13 2 16
13 3 7
13 4 1
13 5 13
13 6 19
13 7 7
13 8 10
13 9 2
13 10 11
13 11 13
13 12 8
14 0 14
14 1 4
14 2 15
14 3 4
14 4 19
14 5 6
14 6 5
14 7 5
14 8 19
14 9 13
14 10 2
14 11 15
14 12 2
14 13 6
15 0 5
15 1 18
15 2 2
15 3 16
15 4 2
15 5 18
15 6 14
15 7 7
15 8 16
15 9 2
15 10 3
15 11 18
15 12 13
15 13 7
15 14 10
16 0 1
16 1 10
16 2 17
16 3 11
16 4 6
16 5 10
16 6 3
16 7 3
16 8 19
16 9 5
16 10 20
16 11 2
16 12 15
16 13 17
16 14 17
16 15 1
17 0 5
17 1 16
17 2 5
17 3 10
17 4 2
17 5 19
17 6 11
17 7 13
17 8 3
17 9 5
17 10 6
17 11 1
17 12 14
17 13 10
17 14 6
17 15 14
17 16 12
18 0 16
18 1 14
18 2 15
18 3 18
18 4 1
18 5 1
18 6 6
18 7 4
18 8 14
18 9 2
18 10 11
18 11 19
18 12 7
18 13 20
18 14 11
18 15 5
18 16 9
18 17 14
19 0 7
19 1 8
19 2 13
19 3 14
19 4 17
19 5 9
19 6 19
19 7 5
19 8 12
19 9 18
19 10 3
19 11 10
19 12 6
19 13 13
19 14 7
19 15 15
19 16 3
19 17 2
19 18 16
20 0 6
20 1 9
20 2 14
20 3 7
20 4 19
20 5 6
20 6 4
20 7 12
20 8 6
20 9 14
20 10 8
20 11 8
20 12 15
20 13 7
20 14 20
20 15 16
20 16 14
20 17 2
20 18 14
20 19 13
21 0 1
21 1 9
21 2 17
21 3 13
21 4 6
21 5 4
21 6 12
21 7 8
21 8 14
21 9 8
21 10 7
21 11 11
21 12 10
21 13 13
21 14 1
21 15 7
21 16 20
21 17 11
21 18 7
21 19 15
21 20 15
22 0 6
22 1 19
22 2 8
22 3 17
22 4 20
22 5 10
22 6 8
22 7 8
22 8 18
22 9 2
22 10 11
22 11 20
22 12 2
22 13 13
22 14 1
22 15 8
22 16 10
22 17 14
22 18 17
22 19 12
22 20 10
22 21 5
23 0 13
23 1 2
23 2 2
23 3 10
23 4 14
23 5 3
23 6 20
23 7 15
23 8 20
23 9 18
23 10 3
23 11 11
23 12 4
23 13 6
23 14 9
23 15 9
23 16 5
23 17 2
23 18 11
23 19 10
23 20 20
23 21 7
23 22 5
24 0 18
24 1 17
24 2 10
24 3 20
24 4 14
24 5 15
24 6 15
24 7 13
24 8 9
24 9 11
24 10 6
24 11 10
24 12 19
24 13 10
24 14 16
24 15 1
24 16 2
24 17 1
24 18 15
24 19 8
24 20 10
24 21 13
24 22 2
24 23 20
25 0 7
25 1 7
25 2 2
25 3 7
25 4 3
25 5 8
25 6 7
25 7 18
25 8 9
25 9 2
25 10 20
25 11 10
25 12 16
25 13 6
25 14 6
25 15 19
25 16 1
25 17 13
25 18 14
25 19 4
25 20 10
25 21 4
25 22 11
25 23 4
25 24 6
26 0 9
26 1 9
26 2 16
26 3 6
26 4 19
26 5 9
26 6 4
26 7 2
26 8 18
26 9 11
26 10 4
26 11 12
26 12 15
26 13 12
26 14 16
26 15 4
26 16 17
26 17 19
26 18 18
26 19 6
26 20 8
26 21 9
26 22 7
26 23 18
26 24 2
26 25 4
27 0 14
27 1 9
27 2 18
27 3 19
27 4 4
27 5 4
27 6 15
27 7 20
27 8 15
27 9 9
27 10 3
27 11 19
27 12 6
27 13 4
27 14 16
27 15 5
27 16 10
27 17 4
27 18 17
27 19 6
27 20 13
27 21 15
27 22 5
27 23 13
27 24 14
27 25 7
27 26 14
28 0 14
28 1 5
28 2 18
28 3 13
28 4 14
28 5 17
28 6 16
28 7 11
28 8 5
28 9 10
28 10 6
28 11 17
28 12 5
28 13 2
28 14 6
28 15 3
28 16 19
28 17 12
28 18 2
28 19 17
28 20 9
28 21 13
28 22 3
28 23 10
28 24 13
28 25 6
28 26 10
28 27 1
29 0 12
29 1 3
29 2 17
29 3 1
29 4 1
29 5 10
29 6 3
29 7 3
29 8 20
29 9 19
29 10 7
29 11 10
29 12 8
29 13 7
29 14 12
29 15 7
29 16 9
29 17 17
29 18 17
29 19 6
29 20 12
29 21 7
29 22 7
29 23 19
29 24 12
29 25 7
29 26 4
29 27 19
29 28 15
30 0 5
30 1 1
30 2 13
30 3 3
30 4 9
30 5 5
30 6 14
30 7 12
30 8 16
30 9 11
30 10 15
30 11 8
30 12 6
30 13 4
30 14 7
30 15 10
30 16 4
30 17 8
30 18 12
30 19 6
30 20 17
30 21 5
30 22 8
30 23 14
30 24 10
30 25 3
30 26 12
30 27 2
30 28 15
30 29 8
31 0 19
31 1 11
31 2 16
31 3 6
31 4 10
31 5 7
31 6 7
31 7 4
31 8 13
31 9 5
31 10 20
31 11 9
31 12 5
31 13 12
31 14 5
31 15 16
31 16 14
31 17 16
31 18 19
31 19 1
31 20 4
31 21 9
31 22 17
31 23 2
31 24 1
31 25 2
31 26 14
31 27 3
31 28 20
31 29 3
31 30 17
32 0 18
32 1 6
32 2 7
32 3 4
32 4 2
32 5 9
32 6 14
32 7 20
32 8 7
32 9 16
32 10 15
32 11 7
32 12 18
32 13 6
32 14 10
32 15 15
32 16 9
32 17 20
32 18 11
32 19 3
32 20 16
32 21 5
32 22 9
32 23 18
32 24 14
32 25 3
32 26 19
32 27 12
32 28 8
32 29 7
32 30 10
32 31 15
33 0 14
33 1 18
33 2 16
33 3 5
33 4 17
33 5 18
33 6 19
33 7 13
33 8 5
33 9 8
33 10 5
33 11 16
33 12 16
33 13 17
33 14 17
33 15 7
33 16 7
33 17 4
33 18 9
33 19 10
33 20 8
33 21 12
33 22 8
33 23 12
33 24 3
33 25 17
33 26 2
33 27 4
33 28 19
33 29 5
33 30 5
33 31 16
33 32 9
34 0 3
34 1 13
34 2 4
34 3 14
34 4 2
34 5 18
34 6 11
34 7 1
34 8 3
34 9 1
34 10 5
34 11 5
34 12 2
34 13 6
34 14 12
34 15 2
34 16 15
34 17 16
34 18 18
34 19 1
34 20 1
34 21 19
34 22 7
34 23 2
34 24 20
34 25 3
34 26 3
34 27 13
34 28 16
34 29 11
34 30 2
34 31 7
34 32 4
34 33 7
35 0 9
35 1 18
35 2 12
35 3 3
35 4 12
35 5 4
35 6 14
35 7 13
35 8 16
35 9 18
35 10 3
35 11 16
35 12 8
35 13 15
35 14 1
35 15 3
35 16 16
35 17 3
35 18 15
35 19 18
35 20 14
35 21 7
35 22 9
35 23 1
35 24 18
35 25 1
35 26 20
35 27 10
35 28 12
35 29 14
35 30 5
35 31 1
35 32 8
35 33 17
35 34 5
36 0 17
36 1 6
36 2 9
36 3 13
36 4 5
36 5 5
36 6 1
36 7 2
36 8 14
36 9 4
36 10 9
36 11 14
36 12 18
36 13 11
36 14 1
36 15 8
36 16 20
36 17 11
36 18 19
36 19 7
36 20 20
36 21 5
36 22 1
36 23 1
36 24 17
36 25 12
36 26 18
36 27 17
36 28 6
36 29 2
36 30 16
36 31 14
36 32 11
36 33 4
36 34 7
36 35 2
37 0 13
37 1 20
37 2 6
37 3 4
37 4 8
37 5 5
37 6 4
37 7 14
37 8 8
37 9 12
37 10 16
37 11 14
37 12 14
37 13 9
37 14 11
37 15 5
37 16 2
37 17 5
37 18 16
37 19 12
37 20 17
37 21 14
37 22 1
37 23 1
37 24 17
37 25 6
37 26 14
37 27 11
37 28 19
37 29 4
37 30 8
37 31 17
37 32 1
37 33 14
37 34 4
37 35 10
37 36 2
38 0 20
38 1 14
38 2 16
38 3 9
38 4 16
38 5 2
38 6 6
38 7 4
38 8 18
38 9 13
38 10 13
38 11 8
38 12 15
38 13 8
38 14 19
38 15 19
38 16 8
38 17 18
38 18 17
38 19 7
38 20 16
38 21 15
38 22 16
38 23 14
38 24 17
38 25 7
38 26 11
38 27 17
38 28 6
38 29 5
38 30 15
38 31 14
38 32 5
38 33 3
38 34 17
38 35 5
38 36 17
38 37 16
39 0 9
39 1 16
39 2 14
39 3 20
39 4 20
39 5 5
39 6 14
39 7 14
39 8 9
39 9 11
39 10 4
39 11 9
39 12 9
39 13 4
39 14 15
39 15 10
39 16 18
39 17 3
39 18 8
39 19 9
39 20 2
39 21 6
39 22 8
39 23 13
39 24 17
39 25 10
39 26 11
39 27 18
39 28 17
39 29 3
39 30 3
39 31 19
39 32 1
39 33 20
39 34 1
39 35 13
39 36 6
39 37 10
39 38 6
